GLPSOL--GLPK LP/MIP Solver 5.0
Parameter(s) specified in the command line:
 --lp ../modeles/4_414.lp --log 4_414.log
Reading problem data from '../modeles/4_414.lp'...
1673 rows, 3320 columns, 11604 non-zeros
1656 integer variables, all of which are binary
5003 lines were read
GLPK Integer Optimizer 5.0
1673 rows, 3320 columns, 11604 non-zeros
1656 integer variables, all of which are binary
Preprocessing...
1640 constraint coefficient(s) were reduced
1673 rows, 3316 columns, 11600 non-zeros
1656 integer variables, all of which are binary
Scaling...
 A: min|aij| =  9.335e-05  max|aij| =  4.000e+00  ratio =  4.285e+04
GM: min|aij| =  6.950e-02  max|aij| =  1.439e+01  ratio =  2.070e+02
EQ: min|aij| =  4.831e-03  max|aij| =  1.000e+00  ratio =  2.070e+02
2N: min|aij| =  3.906e-03  max|aij| =  1.761e+00  ratio =  4.507e+02
Constructing initial basis...
Size of triangular part is 1673
Solving LP relaxation...
GLPK Simplex Optimizer 5.0
1673 rows, 3316 columns, 11600 non-zeros
      0: obj =   8.000000000e+00 inf =   1.950e+01 (9)
     99: obj =   4.452113942e-01 inf =   0.000e+00 (0)
*   340: obj =  -1.999929647e+00 inf =   7.601e-16 (0)
OPTIMAL LP SOLUTION FOUND
Integer optimization begins...
Long-step dual simplex will be used
+   340: mip =     not found yet >=              -inf        (1; 0)
+   813: >>>>>  -1.999929647e+00 >=  -1.999929647e+00 < 0.1% (473; 0)
+   813: mip =  -1.999929647e+00 >=     tree is empty   0.0% (0; 945)
INTEGER OPTIMAL SOLUTION FOUND
Time used:   1.1 secs
Memory used: 4.9 Mb (5183342 bytes)
